
100
24231

782 683
190 92
717 618
942 842
933 835
616 516
732 632
469 370
630 529
209 108
785 683
703 601
384 282
481 379
839 737
544 444
1058 960
1072 972
940 839
194 92
177 76
389 289
460 362
806 705
925 827
661 563
738 640
675 574
137 35
627 527
312 214
518 417
107 9
757 656
1012 911
171 69
679 581
123 24
451 352
258 160
963 861
830 729
995 897
318 218
817 719
802 700
610 511
1015 917
726 625
382 283
819 718
583 482
312 214
718 618
151 49
549 450
656 557
104 3
747 649
191 89
752 650
444 342
132 30
1100 1000
165 65
257 157
607 506
348 246
629 531
575 475
677 577
643 544
393 295
313 212
795 695
530 429
620 521
1016 916
107 9
376 278
662 564
155 54
856 754
502 402
418 317
293 195
1067 967
145 47
922 822
804 705
997 898
804 702
447 347
649 550
1022 922
140 41
951 850
773 674
299 197
1067 967
